
Gurobi 12.0.3 (linux64) logging started Fri Mar 27 13:31:34 2026

Set parameter LogFile to value "/home/solar-wind/WT_Solar_results_bigM100000_thread4/case24_ieee_rts_theta0.15_epsilon0.1_gurobi_seed0_num_gen38_N_WDR200_load_scaling_factor1_EIFICA_T24_num_Solar5_num_WT10.txt"
Gurobi Optimizer version 12.0.3 build v12.0.3rc0 (linux64 - "Ubuntu 22.04.5 LTS")

CPU model: Intel(R) Xeon(R) Platinum 8378A CPU @ 3.00GHz, instruction set [SSE2|AVX|AVX2|AVX512]
Thread count: 32 physical cores, 64 logical processors, using up to 4 threads

Non-default parameters:
TimeLimit  14400
MIPGap  0.001
Threads  4

Academic license 2721591 - for non-commercial use only - registered to fa___@mails.neu.edu.cn
Optimize a model with 624388 rows, 2025 columns and 51044968 nonzeros
Model fingerprint: 0x38c4542e
Model has 912 quadratic objective terms
Coefficient statistics:
  Matrix range     [2e-06, 7e+01]
  Objective range  [2e+01, 6e+01]
  QObjective range [4e-03, 2e-02]
  Bounds range     [0e+00, 0e+00]
  RHS range        [5e-02, 1e+03]
Presolve removed 439081 rows and 0 columns
Presolve time: 5.30s
Presolved: 185307 rows, 2899 columns, 3905652 nonzeros
Presolved model has 912 quadratic objective terms
Elapsed ordering time = 15s
Elapsed ordering time = 15s
Ordering time: 29.27s
Elapsed ordering time = 29s
Elapsed ordering time = 30s
Elapsed ordering time = 35s
Elapsed ordering time = 37s
Elapsed ordering time = 41s
Elapsed ordering time = 45s
Elapsed ordering time = 49s
Elapsed ordering time = 50s
Ordering time: 53.16s

Barrier statistics:
 Dense cols : 1085
 AA' NZ     : 1.916e+08
 Factor NZ  : 6.433e+08 (roughly 5.0 GB of memory)
 Factor Ops : 5.814e+12 (roughly 30 seconds per iteration)
 Threads    : 4

                  Objective                Residual
Iter       Primal          Dual         Primal    Dual     Compl     Time
   0   5.46513080e+08 -2.66358692e+08  3.65e+04 9.94e+02  9.92e+05   152s
   1   5.13221725e+08 -2.40929361e+08  3.50e+04 9.52e+02  9.50e+05   152s
   2   5.07441335e+08 -3.16642138e+08  3.47e+04 9.43e+02  9.45e+05   152s
   3   4.69974969e+08 -3.88768595e+08  3.29e+04 8.93e+02  9.13e+05   153s
   4   4.18447319e+08 -4.45286578e+08  3.05e+04 8.21e+02  8.64e+05   153s
   5   3.68538498e+08 -5.26247344e+08  2.80e+04 7.47e+02  8.36e+05   153s
   6   3.35892215e+08 -5.35413130e+08  2.63e+04 6.97e+02  7.81e+05   153s
   7   3.03674006e+08 -5.46838981e+08  2.44e+04 6.47e+02  7.25e+05   153s
   8   2.70293771e+08 -5.61010408e+08  2.24e+04 5.93e+02  6.66e+05   154s
   9   2.42147384e+08 -5.78526074e+08  2.06e+04 5.45e+02  6.13e+05   154s
  10   2.14284791e+08 -5.98027478e+08  1.89e+04 4.95e+02  5.58e+05   154s
  11   1.92020970e+08 -6.19391421e+08  1.73e+04 4.53e+02  5.11e+05   154s
  12   1.68608739e+08 -6.36962307e+08  1.56e+04 4.07e+02  4.61e+05   154s
  13   1.45360384e+08 -6.56029514e+08  1.39e+04 3.60e+02  4.09e+05   154s
  14   1.26101334e+08 -6.73935268e+08  1.24e+04 3.19e+02  3.63e+05   154s
  15   1.12586043e+08 -6.86117955e+08  1.14e+04 2.89e+02  3.30e+05   155s
  16   1.00033723e+08 -6.99251874e+08  1.04e+04 2.61e+02  2.99e+05   155s
  17   8.73670135e+07 -7.20508562e+08  9.29e+03 2.32e+02  2.66e+05   155s
  18   7.57103954e+07 -7.41548162e+08  8.27e+03 2.04e+02  2.35e+05   155s
  19   6.05405186e+07 -7.67697502e+08  6.87e+03 1.67e+02  1.93e+05   155s
  20   5.11740638e+07 -7.83226451e+08  5.93e+03 1.43e+02  1.66e+05   155s
  21   4.19812346e+07 -7.96708961e+08  4.96e+03 1.19e+02  1.39e+05   155s
  22   3.27314484e+07 -8.08413607e+08  3.96e+03 9.40e+01  1.11e+05   156s
  23   2.40829950e+07 -8.09744196e+08  2.95e+03 6.99e+01  8.37e+04   156s
  24   1.83287505e+07 -8.00717888e+08  2.50e+03 5.35e+01  6.46e+04   156s
  25   5.27615965e+06 -7.41474007e+08  1.98e+03 1.47e+01  2.93e+04   156s
  26   4.72679971e+06 -7.09814839e+08  1.76e+03 1.30e+01  2.59e+04   156s
  27   4.03435324e+06 -6.64319775e+08  1.47e+03 1.08e+01  2.17e+04   156s
  28   3.21465776e+06 -5.98404899e+08  1.12e+03 8.26e+00  1.67e+04   156s
  29   2.51793842e+06 -5.28380987e+08  8.23e+02 6.10e+00  1.26e+04   156s
  30   2.01021683e+06 -4.64321691e+08  6.03e+02 4.50e+00  9.39e+03   157s
  31   1.43873359e+06 -4.18671796e+08  3.34e+02 2.63e+00  6.31e+03   157s
  32   1.20350605e+06 -3.55999179e+08  2.31e+02 1.82e+00  4.49e+03   157s
  33   1.01218023e+06 -2.99517407e+08  1.33e+02 1.06e+00  2.96e+03   157s
  34   8.93334079e+05 -2.75480247e+08  7.46e+01 5.86e-01  2.21e+03   157s
  35   8.60015395e+05 -2.42339739e+08  5.63e+01 4.42e-01  1.80e+03   158s
  36   8.35012691e+05 -2.10823902e+08  4.14e+01 3.28e-01  1.46e+03   158s
  37   8.25769747e+05 -1.96023286e+08  3.56e+01 2.81e-01  1.32e+03   159s
  38   8.05955612e+05 -1.56910119e+08  2.24e+01 1.74e-01  9.84e+02   159s
  39   8.04201852e+05 -1.52743484e+08  1.97e+01 1.54e-01  9.44e+02   160s
  40   8.02222710e+05 -1.40048627e+08  1.67e+01 1.30e-01  8.53e+02   161s
  41   8.00959241e+05 -1.31650902e+08  1.36e+01 1.06e-01  7.91e+02   161s
  42   7.99964789e+05 -9.69120639e+07  9.65e+00 7.56e-02  5.73e+02   162s
  43   7.98715937e+05 -7.69930556e+07  6.63e+00 5.19e-02  4.41e+02   165s
  44   7.98149309e+05 -5.23866707e+07  2.99e+00 1.92e+00  2.92e+02   179s
  45   7.97464663e+05 -1.24840647e+07  6.58e-01 2.27e-01  7.10e+01   193s
  46   7.94369273e+05  2.07994128e+05  3.04e-03 1.39e-02  3.10e+00   207s
  47   7.75797368e+05  4.25287663e+05  1.77e-03 6.90e-03  1.85e+00   221s
  48   7.36673233e+05  6.70734070e+05  4.21e-04 6.15e-02  3.49e-01   236s
  49   7.21307668e+05  7.07381439e+05  1.03e-04 8.90e-03  7.37e-02   252s
  50   7.19031995e+05  7.12123522e+05  1.44e-05 1.25e-03  3.65e-02   279s
  51   7.18166625e+05  7.15692368e+05  1.43e-06 1.23e-04  1.31e-02   306s
  52   7.18011493e+05  7.16294230e+05  8.25e-08 7.14e-06  9.08e-03   334s
  53   7.17834388e+05  7.17150004e+05  2.37e-10 2.39e-11  3.62e-03   359s
  54   7.17764333e+05  7.17492082e+05  4.60e-10 1.05e-11  1.44e-03   384s
  55   7.17735861e+05  7.17629110e+05  3.88e-10 5.08e-11  5.65e-04   409s
  56   7.17724872e+05  7.17682391e+05  1.04e-09 1.59e-11  2.25e-04   434s
  57   7.17717934e+05  7.17715664e+05  6.13e-09 8.14e-12  1.20e-05   459s
  58   7.17717550e+05  7.17717490e+05  3.59e-09 2.33e-11  3.18e-07   485s
  59   7.17717540e+05  7.17717539e+05  1.98e-08 4.16e-09  6.23e-09   511s

Barrier solved model in 59 iterations and 510.59 seconds (636.96 work units)
Optimal objective 7.17717540e+05

